4 
5  28 48 
6  06 21 34 49 
7  04 19 34 49 
8  04 19 34 49 
9  04 20 34 49 
10  04 19 34 48 
11  03 18 33 48 
12  03 18 33 48 
13  04 19 34 49 
14  04 19 34 49 
15  04 19 34 49 
16  04 19 34 49 
17  04 19 34 49 
18  04 19 34 50 
19  04 19 34 49 
20  04 19 34 49 
21  04 22 37 49 
22  04 19 34 53 
23  07 22 
0 
